--------------------------------------------------------------------------------(Solver execution current time: 3.0994415283203125e-06)
[INFO] Input Seed : 0
--------------------------------------------------------------------------------(Solver execution current time: 1.4066696166992188e-05)
[INFO] Input time limit : 30
--------------------------------------------------------------------------------(Solver execution current time: 1.71661376953125e-05)
[INFO] Command line arguments read with no errors.
--------------------------------------------------------------------------------(Solver execution current time: 0.05866718292236328)
[INFO] Input file read with no errors.
--------------------------------------------------------------------------------(Solver execution current time: 0.0586855411529541)
[INFO] Starting solver.
--------------------------------------------------------------------------------(Solver execution current time: 0.05869722366333008)
[INFO] Starting construction
--------------------------------------------------------------------------------(Solver execution current time: 15.785003423690796)
[INFO] Finished construction
--------------------------------------------------------------------------------(Solver execution current time: 15.788638830184937)
[SOLUTION]
Solution after BasicGreedy
obj_value: 24; obj_routes: 2500766
Route 1 : 25 26 56 78 19 119 23 156 125 126 123 95 195 178 
Route 2 : 79 17 117 179 53 52 153 20 152 120 
Route 3 : 85 4 21 89 185 30 121 2 189 102 104 130 27 127 
Route 4 : 87 54 60 160 86 154 187 186 
Route 5 : 83 1 28 50 128 101 150 183 
Route 6 : 57 15 72 115 24 172 157 93 88 193 188 124 
Route 7 : 97 98 5 58 105 158 197 84 198 94 184 194 
Route 8 : 96 91 196 65 31 191 165 61 131 161 
Route 9 : 63 90 62 39 139 35 162 190 135 163 
Route 10 : 18 14 68 118 67 167 32 168 132 114 
Route 11 : 71 171 66 64 44 144 166 164 59 159 
Route 12 : 73 9 33 173 37 109 137 133 69 169 
Route 13 : 40 41 43 10 110 141 92 143 140 192 
Route 14 : 74 51 81 151 181 34 174 134 6 106 
Route 15 : 100 70 29 200 129 170 
Route 16 : 76 46 146 7 11 111 176 107 
Route 17 : 75 99 3 175 199 103 
Route 18 : 47 48 148 147 8 108 
Route 19 : 80 36 180 136 
Route 20 : 42 16 12 116 112 142 
Route 21 : 77 22 177 38 122 138 
Route 22 : 13 49 113 149 
Route 23 : 45 145 55 155 
Route 24 : 82 182 

--------------------------------------------------------------------------------(Solver execution current time: 15.788821458816528)
[INFO] Starting metaheuristic
--------------------------------------------------------------------------------(Solver execution current time: 22.886573314666748)
[SOLUTION]
AGES
IT: 2
Exec Time: 7.086398124694824
Improved
obj_value: 23; obj_routes: 2476409
Route 1 : 25 26 56 78 19 119 23 156 125 126 123 95 195 178 
Route 2 : 79 17 117 179 53 52 153 20 152 120 
Route 3 : 85 4 21 89 185 30 121 2 189 102 104 130 27 127 
Route 4 : 87 54 60 160 43 86 154 45 187 143 145 186 
Route 5 : 83 1 28 50 128 101 150 183 
Route 6 : 57 15 72 115 24 172 157 93 88 193 188 124 
Route 7 : 97 98 5 58 105 158 197 84 198 94 184 194 
Route 8 : 96 91 196 65 31 191 165 61 131 161 
Route 9 : 63 90 62 39 139 35 162 190 135 163 
Route 10 : 18 14 68 118 67 167 32 168 132 114 
Route 11 : 71 171 66 64 44 144 166 164 59 159 
Route 12 : 73 9 33 173 37 109 137 133 69 169 
Route 13 : 74 51 10 81 151 110 181 34 174 134 6 106 
Route 14 : 100 70 29 200 129 170 
Route 15 : 76 46 146 7 11 111 176 107 
Route 16 : 75 99 3 175 199 103 
Route 17 : 47 48 148 147 8 108 
Route 18 : 80 36 180 136 
Route 19 : 16 12 116 112 92 192 
Route 20 : 77 22 177 38 122 138 
Route 21 : 41 13 141 49 113 149 
Route 22 : 42 55 142 155 
Route 23 : 40 82 140 182 

--------------------------------------------------------------------------------(Solver execution current time: 26.938695430755615)
[SOLUTION]
LNS
IT: 40
Exec Time: 4.0458996295928955
Improved
obj_value: 23; obj_routes: 2463959
Route 1 : 25 26 56 78 19 119 23 156 125 126 123 95 195 178 
Route 2 : 79 17 117 179 53 52 153 20 152 120 
Route 3 : 85 4 21 89 185 30 121 2 189 102 104 130 27 127 
Route 4 : 87 54 43 86 154 45 187 143 145 186 
Route 5 : 83 1 28 50 128 101 150 183 
Route 6 : 57 15 72 115 24 172 157 93 88 193 188 124 
Route 7 : 97 98 5 58 105 158 197 84 198 94 184 194 
Route 8 : 96 91 196 65 31 191 165 61 131 161 
Route 9 : 63 90 62 39 139 35 162 190 135 163 
Route 10 : 18 14 68 118 67 167 32 168 132 114 
Route 11 : 71 171 66 64 44 144 166 164 59 159 
Route 12 : 73 9 33 173 37 109 137 133 69 169 
Route 13 : 74 51 10 81 151 110 181 34 174 134 6 106 
Route 14 : 70 29 129 170 
Route 15 : 76 46 146 7 11 111 176 107 
Route 16 : 75 99 3 175 199 103 
Route 17 : 47 48 148 147 8 108 
Route 18 : 80 36 180 136 
Route 19 : 16 12 116 112 92 192 
Route 20 : 77 22 177 38 122 138 
Route 21 : 41 13 141 49 113 149 
Route 22 : 42 60 160 55 142 155 
Route 23 : 40 100 82 140 200 182 

--------------------------------------------------------------------------------(Solver execution current time: 27.01793622970581)
[SOLUTION]
PartitionMaxRequests
Exec Time: 0.07519102096557617
obj_value: 23; obj_routes: 2463959
Route 1 : 25 26 56 78 19 119 23 156 125 126 123 95 195 178 
Route 2 : 79 17 117 179 53 52 153 20 152 120 
Route 3 : 85 4 21 89 185 30 121 2 189 102 104 130 27 127 
Route 4 : 83 1 28 50 128 101 150 183 
Route 5 : 57 15 72 115 24 172 157 93 88 193 188 124 
Route 6 : 97 98 5 58 105 158 197 84 198 94 184 194 
Route 7 : 96 91 196 65 31 191 165 61 131 161 
Route 8 : 63 90 62 39 139 35 162 190 135 163 
Route 9 : 18 14 68 118 67 167 32 168 132 114 
Route 10 : 71 171 66 64 44 144 166 164 59 159 
Route 11 : 73 9 33 173 37 109 137 133 69 169 
Route 12 : 76 46 146 7 11 111 176 107 
Route 13 : 75 99 3 175 199 103 
Route 14 : 47 48 148 147 8 108 
Route 15 : 80 36 180 136 
Route 16 : 77 22 177 38 122 138 
Route 17 : 87 54 43 86 154 45 187 143 145 186 
Route 18 : 74 51 10 81 151 110 181 34 174 134 6 106 
Route 19 : 70 29 129 170 
Route 20 : 16 12 116 112 92 192 
Route 21 : 41 13 141 49 113 149 
Route 22 : 42 60 160 55 142 155 
Route 23 : 40 100 82 140 200 182 

--------------------------------------------------------------------------------(Solver execution current time: 28.684085607528687)
[SOLUTION]
Original Perturbation
Exec Time: 1.6650454998016357
obj_value: 23; obj_routes: 2411365
Route 1 : 25 26 56 78 19 119 23 156 125 126 123 95 195 178 
Route 2 : 79 17 13 117 179 52 152 113 
Route 3 : 85 4 21 89 185 30 121 2 189 102 104 130 27 127 
Route 4 : 54 43 86 154 45 143 145 186 
Route 5 : 63 1 91 50 191 101 8 163 150 108 
Route 6 : 57 15 72 115 24 172 157 93 88 193 188 124 
Route 7 : 97 98 5 105 197 84 198 94 184 194 
Route 8 : 39 65 139 31 165 61 131 161 
Route 9 : 90 62 96 53 196 35 162 153 190 135 
Route 10 : 18 14 99 118 67 167 32 199 132 114 
Route 11 : 71 171 66 44 144 166 92 192 
Route 12 : 73 9 173 37 80 109 137 69 180 169 
Route 13 : 74 51 10 81 151 110 181 34 174 134 6 106 
Route 14 : 87 70 29 187 129 170 
Route 15 : 76 46 146 64 164 176 
Route 16 : 68 75 3 175 168 103 
Route 17 : 83 41 47 58 158 141 147 183 
Route 18 : 33 7 36 133 107 136 
Route 19 : 16 12 116 112 38 138 
Route 20 : 42 100 77 22 177 122 200 142 
Route 21 : 48 148 20 49 120 149 
Route 22 : 60 160 28 128 59 55 155 159 
Route 23 : 40 82 11 111 140 182 

--------------------------------------------------------------------------------(Solver execution current time: 28.686386108398438)
[SOLUTION]
SBMath
IT: 1
ITs witout improving: 1
IT time: 12.891281843185425
Time since begin: 12.894268035888672
obj_value: 23; obj_routes: 2411365
Route 1 : 25 26 56 78 19 119 23 156 125 126 123 95 195 178 
Route 2 : 79 17 13 117 179 52 152 113 
Route 3 : 85 4 21 89 185 30 121 2 189 102 104 130 27 127 
Route 4 : 54 43 86 154 45 143 145 186 
Route 5 : 63 1 91 50 191 101 8 163 150 108 
Route 6 : 57 15 72 115 24 172 157 93 88 193 188 124 
Route 7 : 97 98 5 105 197 84 198 94 184 194 
Route 8 : 39 65 139 31 165 61 131 161 
Route 9 : 90 62 96 53 196 35 162 153 190 135 
Route 10 : 18 14 99 118 67 167 32 199 132 114 
Route 11 : 71 171 66 44 144 166 92 192 
Route 12 : 73 9 173 37 80 109 137 69 180 169 
Route 13 : 74 51 10 81 151 110 181 34 174 134 6 106 
Route 14 : 87 70 29 187 129 170 
Route 15 : 76 46 146 64 164 176 
Route 16 : 68 75 3 175 168 103 
Route 17 : 83 41 47 58 158 141 147 183 
Route 18 : 33 7 36 133 107 136 
Route 19 : 16 12 116 112 38 138 
Route 20 : 42 100 77 22 177 122 200 142 
Route 21 : 48 148 20 49 120 149 
Route 22 : 60 160 28 128 59 55 155 159 
Route 23 : 40 82 11 111 140 182 

--------------------------------------------------------------------------------(Solver execution current time: 28.686562299728394)
[SOLUTION]
SBMath
IT: 1
ITs witout improving: 1
IT time: 12.891281843185425
Time since begin: 12.894268035888672
obj_value: 23; obj_routes: 2393805
Route 1 : 25 26 56 78 19 119 23 156 125 126 123 95 195 178 
Route 2 : 79 17 13 117 179 52 152 113 
Route 3 : 85 4 21 89 185 30 121 2 189 102 104 130 27 127 
Route 4 : 87 54 43 86 154 45 187 143 145 186 
Route 5 : 1 91 53 50 191 101 153 8 150 108 
Route 6 : 57 15 72 115 24 172 157 93 88 193 188 124 
Route 7 : 97 98 5 105 197 84 198 94 184 194 
Route 8 : 96 196 65 31 165 61 131 161 
Route 9 : 63 90 62 39 139 35 162 190 135 163 
Route 10 : 18 14 99 118 67 167 32 199 132 114 
Route 11 : 71 171 66 44 144 166 59 159 
Route 12 : 73 9 33 173 37 109 137 133 69 169 
Route 13 : 74 51 10 81 151 110 181 34 174 134 6 106 
Route 14 : 70 29 129 170 
Route 15 : 76 46 146 64 7 164 176 107 
Route 16 : 68 75 3 175 168 103 
Route 17 : 83 41 47 58 158 141 147 183 
Route 18 : 80 36 180 136 
Route 19 : 16 12 116 112 92 192 
Route 20 : 77 22 177 38 122 138 
Route 21 : 48 148 20 49 120 149 
Route 22 : 42 60 160 28 128 55 142 155 
Route 23 : 40 100 82 11 111 140 200 182 

--------------------------------------------------------------------------------(Solver execution current time: 30.011409521102905)
[WARNING] Time Limit Exceeded
--------------------------------------------------------------------------------(Solver execution current time: 30.011439561843872)
[WARNING] Searching current best solution.
--------------------------------------------------------------------------------(Solver execution current time: 30.01339364051819)
[WARNING] Current best solution found.
--------------------------------------------------------------------------------(Solver execution current time: 30.01462435722351)
[INFO] Algorithm execution time : 30.015340328216553
--------------------------------------------------------------------------------(Solver execution current time: 30.015778303146362)
[SOLUTION]
Final Solution Verification
====================================
Constraints verification: 
Homogenous Capacity Constraint OK
Time Windwos Constraint OK
Pickup and Delivery Constraint OK
Attend All Requests Constraint OK
====================================
Obj Func verification: 
SOLUTION COST OK
------------------------------------
ROUTES TOTAL COST OK
------------------------------------
REQUESTS TOTAL COST OK
------------------------------------
OBJECTIVE VALUE: 23
ROUTES VALUE: 2393805
------------------------------------

Best Solution: 
obj_value: 23; obj_routes: 2393805
Route 1 : 25 26 56 78 19 119 23 156 125 126 123 95 195 178 
Route 2 : 79 17 13 117 179 52 152 113 
Route 3 : 85 4 21 89 185 30 121 2 189 102 104 130 27 127 
Route 4 : 87 54 43 86 154 45 187 143 145 186 
Route 5 : 1 91 53 50 191 101 153 8 150 108 
Route 6 : 57 15 72 115 24 172 157 93 88 193 188 124 
Route 7 : 97 98 5 105 197 84 198 94 184 194 
Route 8 : 96 196 65 31 165 61 131 161 
Route 9 : 63 90 62 39 139 35 162 190 135 163 
Route 10 : 18 14 99 118 67 167 32 199 132 114 
Route 11 : 71 171 66 44 144 166 59 159 
Route 12 : 73 9 33 173 37 109 137 133 69 169 
Route 13 : 74 51 10 81 151 110 181 34 174 134 6 106 
Route 14 : 70 29 129 170 
Route 15 : 76 46 146 64 7 164 176 107 
Route 16 : 68 75 3 175 168 103 
Route 17 : 83 41 47 58 158 141 147 183 
Route 18 : 80 36 180 136 
Route 19 : 16 12 116 112 92 192 
Route 20 : 77 22 177 38 122 138 
Route 21 : 48 148 20 49 120 149 
Route 22 : 42 60 160 28 128 55 142 155 
Route 23 : 40 100 82 11 111 140 200 182 

--------------------------------------------------------------------------------